NAME: CMT11_4
TYPE: CVRP
COMMENT: 1042.11 - Cluster Nr.4
DIMENSION: 21
CAPACITY: 200
EDGE_WEIGHT_TYPE: EUC_2D
NODE_COORD_TYPE: TWOD_COORDS
NODE_COORD_SECTION: 
11 84 5
21 84 3
17 78 9
4 78 3
5 76 6
16 90 15
19 73 6
9 85 8
7 82 7
8 10 45
2 85 1
10 76 10
13 79 3
14 84 9
15 87 7
6 79 5
20 76 13
1 73 8
12 82 3
3 87 5
18 79 11
DEPOT_SECTION: 
8
-1
DEMAND_SECTION: 
19 13
1 18
10 4
13 8
20 7
4 12
17 13
7 5
6 16
11 10
12 6
21 11
9 4
8 0
15 4
2 7
3 2
5 17
16 9
18 15
14 3
EOF
